c Random generated cnf formula, satisfiable: false
p cnf 10 50
-2 -6 -4 0
-2 -1 3 0
8 10 -9 0
3 4 -2 0
7 1 -10 0
5 2 9 0
-1 -10 -4 0
-1 10 5 0
-3 1 -9 0
-8 -3 9 0
10 -9 3 0
-9 3 -2 0
-5 7 -2 0
9 1 8 0
-6 -2 -3 0
10 8 -3 0
-8 7 3 0
-9 6 10 0
-4 -8 6 0
-7 1 2 0
-5 -7 9 0
10 6 5 0
-5 1 6 0
-8 -9 6 0
-5 -10 -9 0
2 6 -3 0
-4 -3 8 0
8 5 4 0
5 -1 -4 0
3 -2 -4 0
-9 -8 1 0
9 -8 6 0
-1 7 -2 0
-3 -2 5 0
9 8 -3 0
4 1 -5 0
-3 9 10 0
-5 4 -9 0
-2 -8 -3 0
6 -4 10 0
4 -5 2 0
6 -3 -1 0
-4 5 1 0
-3 -7 -9 0
7 -6 -5 0
-4 -8 5 0
8 -10 2 0
2 -10 -8 0
10 -1 -7 0
-7 5 6 0
